nNurses = 86;
nHours = 27;
minHours = 5;
maxHours = 14;
maxConsec = 11;
maxPresence = 26;
demand = [14, 10, 13, 9, 7, 10, 13, 18, 22, 21, 22, 21, 16, 20, 18, 17, 13, 9, 8, 9, 8, 13, 16, 15, 19, 21, 17];
